NAME : rc_206.2.8704875.tour
COMMENT : Length = 8704875
COMMENT : Found by LKH [Keld Helsgaun] Tue May  2 05:51:53 2017
TYPE : TOUR
DIMENSION : 37
TOUR_SECTION
1
35
36
28
21
27
16
19
23
10
8
6
24
15
30
29
20
9
17
5
14
7
31
32
2
3
4
37
22
18
25
12
11
13
33
34
26
-1
EOF
